% Dimensiones del tablero
filas = 5;   
columnas = 5;   

% Definición del tipo de cada celda
tipo_celda = array2d(1..filas, 1..columnas, [
    NEGRA,  SUMA_V,  SUMA_V,  NEGRA,    NEGRA,
    SUMA_H, BLANCA,  BLANCA,  SUMA_V,   NEGRA,
    SUMA_H, BLANCA,  BLANCA,  BLANCA,   SUMA_V,
    NEGRA,  SUMA_H,  BLANCA,  BLANCA,   BLANCA,
    NEGRA,  NEGRA,   SUMA_H,  BLANCA,   BLANCA
]);

% Valores de las pistas (sumas)
pistas = array2d(1..filas, 1..columnas, [
    0,  4,  6,   0,  0,
    3,  0,  0,   6,  0,
    6,  0,  0,   0, 13, 
    0,  8,  0,   0,  0,
    0,  0, 12,   0,  0
]);